NAME : rnd26_50.tsp.tsp.optbc.tour
TYPE : TOUR
DIMENSION : 50
TOUR_SECTION
1
36
18
15
30
43
45
16
47
21
39
25
41
37
35
48
10
26
3
29
13
5
40
44
22
28
14
34
2
50
32
42
49
33
24
20
7
8
38
19
11
9
4
17
31
12
27
6
23
46
-1